sifdecoder -A pc64.lnx.gfo -st   AUG2D

 Problem name: AUG2D

 Double precision version will be formed

 The objective function uses 19800 nonlinear groups
 
 There are 10000 linear equality constraints
 
 There are 20200 free variables
 
 
 File successfully decoded
 CUTEST: tools (double precision version) compiled successfully
 CUTEst: ipopt (double precision version) compiled successfully

******************************************************************************
This program contains Ipopt, a library for large-scale nonlinear optimization.
 Ipopt is released as open source code under the Eclipse Public License (EPL).
         For more information visit http://projects.coin-or.org/Ipopt
******************************************************************************

This is Ipopt version trunk, running with linear solver ma57.

Number of nonzeros in equality constraint Jacobian...:    40000
Number of nonzeros in inequality constraint Jacobian.:        0
Number of nonzeros in Lagrangian Hessian.............:    19800

Total number of variables............................:    20200
                     variables with only lower bounds:        0
                variables with lower and upper bounds:        0
                     variables with only upper bounds:        0
Total number of equality constraints.................:    10000
Total number of inequality constraints...............:        0
        inequality constraints with only lower bounds:        0
   inequality constraints with lower and upper bounds:        0
        inequality constraints with only upper bounds:        0

iter    objective    inf_pr   inf_du lg(mu)  ||d||  lg(rg) alpha_du alpha_pr  ls
   0  9.9000000e+03 1.00e+00 1.00e+00  -1.0 0.00e+00    -  0.00e+00 0.00e+00   0
   1  1.6874118e+06 7.99e-15 3.49e-03  -1.7 3.49e+01  -4.0 1.00e+00 1.00e+00h  1
   2  1.6874118e+06 1.07e-14 1.75e-08  -5.7 5.24e-04  -4.5 1.00e+00 1.00e+00f  1

Number of Iterations....: 2

                                   (scaled)                 (unscaled)
Objective...............:   1.6874117528967503e+06    1.6874117528967503e+06
Dual infeasibility......:   1.7473035180643284e-08    1.7473035180643284e-08
Constraint violation....:   1.0658141036401503e-14    1.0658141036401503e-14
Complementarity.........:   0.0000000000000000e+00    0.0000000000000000e+00
Overall NLP error.......:   5.1774663624959598e-09    1.7473035180643284e-08


Number of objective function evaluations             = 3
Number of objective gradient evaluations             = 3
Number of equality constraint evaluations            = 3
Number of inequality constraint evaluations          = 0
Number of equality constraint Jacobian evaluations   = 3
Number of inequality constraint Jacobian evaluations = 0
Number of Lagrangian Hessian evaluations             = 2
Total CPU secs in IPOPT (w/o function evaluations)   =      0.437
Total CPU secs in NLP function evaluations           =      0.041

EXIT: Optimal Solution Found.

************************ CUTEst statistics ************************


 Package used            :  IPOPT
 Problem                 :  AUG2D     
 # variables             =           20200
 # constraints           =           10000
 # objective functions   =        0.7000000E+01
 # objective gradients   =        0.4000000E+01
 # objective Hessians    =        0.3000000E+01
 # Hessian-vector prdct  =        0.0000000E+00
 # constraints functions =        0.8000000E+01
 # constraints gradients =        0.5000000E+01
 # constraints Hessians  =        0.3000000E+01
 Exit code               =               0
 Final f                 =        1.6874117528967503D+06
 Bounds feasibility      =        0.0000000000000000D+00
 Set up time             =            0.74 seconds
 Solve time              =            1.16 seconds


******************************************************************

